sport_names = ["Bike", "Run", "Swim"];

CTL_0 = [25,3,0];
ATL_0 = [37,1,0];

Period = 28;

availability = 
[|0,1,1,1,0,1,1,
0,1,1,1,0,1,1,
0,1,1,1,0,1,1,
0,1,1,1,0,1,1

|0,0,1,0,0,1,1,
0,0,1,0,0,1,1,
0,0,1,0,0,1,1,
0,0,1,0,0,1,1

|0,0,0,0,0,0,0,
0,0,0,0,0,0,0,
0,0,0,0,0,0,0,
0,0,0,0,0,0,0|];
% [|0,1,1,1,0,1,1,
% 0,1,1,1,0,1,1,
% 0,1,1,1,0,1,1

% |0,1,0,0,0,1,0,
% 0,1,0,0,0,1,0,
% 0,1,0,0,0,1,0

% |0,0,0,0,0,0,0,
% 0,0,0,0,0,0,0,
% 0,0,0,0,0,0,0|];

available_time =
[0.5,0.5,1,0.5,1,2,4,
0.5,0.5,1,0.5,1,2,4,
0.5,0.5,1,0.5,1,2,4,
0.5,0.5,1,0.5,1,2,4];